(set-info :smt-lib-version 2.6)
(set-logic QF_UFLRA)
(set-info :source |
MathSat group

|)
(set-info :category "random")
(set-info :status sat)
(declare-fun x0 () Real)
(declare-fun x1 () Real)
(declare-fun x2 () Real)
(declare-fun x3 () Real)
(declare-fun x4 () Real)
(declare-fun x5 () Real)
(declare-fun x6 () Real)
(declare-fun x7 () Real)
(declare-fun x8 () Real)
(declare-fun x9 () Real)
(declare-fun x10 () Real)
(declare-fun x11 () Real)
(declare-fun x12 () Real)
(declare-fun x13 () Real)
(declare-fun x14 () Real)
(declare-fun x15 () Real)
(declare-fun x16 () Real)
(declare-fun x17 () Real)
(declare-fun x18 () Real)
(declare-fun x19 () Real)
(declare-fun x20 () Real)
(declare-fun x21 () Real)
(declare-fun x22 () Real)
(declare-fun x23 () Real)
(declare-fun x24 () Real)
(declare-fun x25 () Real)
(declare-fun x26 () Real)
(declare-fun x27 () Real)
(declare-fun x28 () Real)
(declare-fun x29 () Real)
(declare-fun x30 () Real)
(declare-fun x31 () Real)
(declare-fun x32 () Real)
(declare-fun x33 () Real)
(declare-fun x34 () Real)
(declare-fun x35 () Real)
(declare-fun x36 () Real)
(declare-fun x37 () Real)
(declare-fun x38 () Real)
(declare-fun x39 () Real)
(declare-fun x40 () Real)
(declare-fun x41 () Real)
(declare-fun x42 () Real)
(declare-fun x43 () Real)
(declare-fun x44 () Real)
(declare-fun x45 () Real)
(declare-fun x46 () Real)
(declare-fun x47 () Real)
(declare-fun x48 () Real)
(declare-fun x49 () Real)
(declare-fun f0_1 (Real) Real)
(declare-fun f0_2 (Real Real) Real)
(declare-fun f0_3 (Real Real Real) Real)
(declare-fun f0_4 (Real Real Real Real) Real)
(declare-fun P0 () Bool)
(declare-fun P1 () Bool)
(declare-fun P2 () Bool)
(declare-fun P3 () Bool)
(declare-fun P4 () Bool)
(declare-fun P5 () Bool)
(declare-fun P6 () Bool)
(declare-fun P7 () Bool)
(declare-fun P8 () Bool)
(declare-fun P9 () Bool)
(declare-fun P10 () Bool)
(declare-fun P11 () Bool)
(declare-fun P12 () Bool)
(declare-fun P13 () Bool)
(declare-fun P14 () Bool)
(declare-fun P15 () Bool)
(declare-fun P16 () Bool)
(declare-fun P17 () Bool)
(declare-fun P18 () Bool)
(declare-fun P19 () Bool)
(declare-fun P20 () Bool)
(declare-fun P21 () Bool)
(declare-fun P22 () Bool)
(declare-fun P23 () Bool)
(declare-fun P24 () Bool)
(declare-fun P25 () Bool)
(declare-fun P26 () Bool)
(declare-fun P27 () Bool)
(declare-fun P28 () Bool)
(declare-fun P29 () Bool)
(declare-fun P30 () Bool)
(declare-fun P31 () Bool)
(declare-fun P32 () Bool)
(declare-fun P33 () Bool)
(declare-fun P34 () Bool)
(declare-fun P35 () Bool)
(declare-fun P36 () Bool)
(declare-fun P37 () Bool)
(declare-fun P38 () Bool)
(declare-fun P39 () Bool)
(declare-fun P40 () Bool)
(declare-fun P41 () Bool)
(declare-fun P42 () Bool)
(declare-fun P43 () Bool)
(declare-fun P44 () Bool)
(declare-fun P45 () Bool)
(declare-fun P46 () Bool)
(declare-fun P47 () Bool)
(declare-fun P48 () Bool)
(declare-fun P49 () Bool)
(assert (let ((?v_26 (* 13 x44))) (let ((?v_85 (< (+ (- (* 26 x47) (* 23 x6)) ?v_26) 14)) (?v_3 (* 13 x2)) (?v_44 (* 25 x39))) (let ((?v_210 (<= (- (+ (* 5 x25) ?v_44) (* 24 x21)) 5)) (?v_101 (< (- (- (* 18 x18) (* 24 x30)) (* 9 x8)) 13)) (?v_67 (* 4 x15))) (let ((?v_185 (< (+ (- (* 7 x44) ?v_67) (* 3 x42)) 20)) (?v_206 (< (- (- (* 20 x41) (* 26 x32)) (* 24 x48)) 4)) (?v_7 (* 18 x27)) (?v_19 (* 14 x21)) (?v_10 (< (- (- (* 7 x37) (* 25 x8)) (* 15 x14)) 3)) (?v_35 (< (+ (- (* 3 x37) (* 13 x28)) (* 9 x1)) 23)) (?v_48 (f0_1 x32))) (let ((?v_62 (distinct ?v_48 (f0_2 x16 x26))) (?v_115 (distinct x33 (f0_1 x27))) (?v_215 (= (f0_2 x37 x29) x47)) (?v_63 (= x16 (f0_1 x35))) (?v_38 (= x40 x6)) (?v_89 (= (f0_2 x48 x32) (f0_2 x45 x35))) (?v_139 (= x12 (f0_2 x46 x6))) (?v_12 (f0_1 x17)) (?v_33 (f0_1 x42))) (let ((?v_73 (= ?v_12 ?v_33)) (?v_122 (distinct x37 (f0_2 x16 x45))) (?v_176 (distinct (f0_2 x28 x48) (f0_1 x33))) (?v_9 (distinct (f0_1 x24) (f0_2 x15 x18))) (?v_151 (f0_1 x43))) (let ((?v_227 (= (f0_1 x25) ?v_151)) (?v_0 (distinct (f0_2 x23 x30) (f0_1 x48))) (?v_17 (= (f0_1 x29) ?v_33)) (?v_27 (f0_1 x41))) (let ((?v_40 (distinct (f0_1 x26) ?v_27)) (?v_55 (f0_1 x30))) (let ((?v_212 (distinct (f0_2 x13 x35) ?v_55)) (?v_94 (distinct x20 (f0_1 x14))) (?v_5 (f0_1 x31))) (let ((?v_109 (= (f0_2 x42 x17) ?v_5)) (?v_134 (= (f0_2 x48 x48) x30)) (?v_217 (distinct (f0_2 x46 x10) (f0_2 x33 x47))) (?v_16 (f0_1 x9))) (let ((?v_54 (= ?v_16 x5)) (?v_102 (= x30 (f0_2 x24 x47))) (?v_24 (= (f0_2 x37 x35) (f0_2 x36 x5))) (?v_154 (distinct (f0_1 x28) (f0_1 x19))) (?v_39 (distinct (f0_2 x38 x11) x18)) (?v_108 (distinct (f0_2 x11 x15) x30)) (?v_79 (distinct ?v_48 x18)) (?v_36 (= x7 (f0_2 x46 x27))) (?v_133 (= ?v_16 (f0_1 x44))) (?v_31 (distinct x4 (f0_2 x11 x9))) (?v_32 (distinct (f0_1 x13) ?v_27)) (?v_120 (= (f0_2 x27 x36) (f0_1 x22))) (?v_4 (= x35 (f0_2 x44 x1))) (?v_13 (= ?v_5 (f0_2 x21 x10))) (?v_76 (distinct ?v_12 (f0_1 x4))) (?v_205 (distinct (f0_2 x9 x23) x39)) (?v_15 (distinct (f0_1 x38) ?v_12)) (?v_141 (distinct (f0_2 x8 x22) ?v_55)) (?v_121 (distinct x5 x8)) (?v_207 (distinct x14 (f0_2 x1 x39))) (?v_148 (= x2 x13)) (?v_131 (distinct (f0_2 x35 x32) (f0_2 x26 x2))) (?v_37 (= (f0_2 x20 x0) x12)) (?v_178 (= ?v_55 x46)) (?v_256 (distinct (f0_2 x4 x29) x3)) (?v_145 (distinct x43 x19)) (?v_248 (distinct x14 ?v_16)) (?v_103 (= x8 (f0_1 x47))) (?v_179 (distinct (f0_2 x37 x28) (f0_2 x40 x45))) (?v_191 (= x6 ?v_151)) (?v_64 (not ?v_9)) (?v_222 (not ?v_38)) (?v_29 (not P29)) (?v_2 (not ?v_0)) (?v_183 (not P44))) (let ((?v_47 (not ?v_121)) (?v_22 (not P26)) (?v_11 (not ?v_4)) (?v_150 (not P2)) (?v_213 (not P8)) (?v_18 (not P23)) (?v_75 (not ?v_215)) (?v_42 (not ?v_31)) (?v_127 (not P48)) (?v_95 (not ?v_256)) (?v_209 (not ?v_85)) (?v_164 (not ?v_76)) (?v_80 (not ?v_32)) (?v_136 (not P40)) (?v_30 (not ?v_36)) (?v_72 (not P42)) (?v_188 (not ?v_13)) (?v_90 (not P37)) (?v_146 (not ?v_54)) (?v_229 (not ?v_17)) (?v_261 (not P22)) (?v_161 (not P25)) (?v_43 (not P43)) (?v_238 (not ?v_206)) (?v_119 (not ?v_39)) (?v_117 (not P9)) (?v_53 (not P34)) (?v_45 (not ?v_131)) (?v_135 (not P49)) (?v_83 (not P0)) (?v_107 (not ?v_35)) (?v_97 (not ?v_37)) (?v_68 (not P6)) (?v_174 (not P35)) (?v_192 (not ?v_178)) (?v_69 (not ?v_62)) (?v_126 (not ?v_63)) (?v_96 (not ?v_191)) (?v_104 (not P14)) (?v_143 (not ?v_148)) (?v_74 (not P18)) (?v_93 (not P10)) (?v_190 (not ?v_207)) (?v_129 (not ?v_94)) (?v_87 (not ?v_120)) (?v_118 (not ?v_103)) (?v_92 (not P36)) (?v_172 (not ?v_134)) (?v_156 (not P45)) (?v_91 (not P33)) (?v_221 (not ?v_154)) (?v_203 (not ?v_79)) (?v_211 (not P21)) (?v_160 (not ?v_248)) (?v_180 (not ?v_89)) (?v_166 (not ?v_24)) (?v_113 (not P31)) (?v_216 (not P16)) (?v_193 (not ?v_108)) (?v_196 (not ?v_109)) (?v_226 (not ?v_205)) (?v_182 (not ?v_122)) (?v_243 (not P11)) (?v_128 (not P38)) (?v_201 (not ?v_73)) (?v_184 (not ?v_115)) (?v_125 (not P4)) (?v_189 (not P13)) (?v_202 (not P47)) (?v_194 (not P3)) (?v_137 (not ?v_40)) (?v_219 (not ?v_217)) (?v_167 (not P32)) (?v_224 (not P20)) (?v_233 (not P28)) (?v_237 (not P1)) (?v_175 (not ?v_141)) (?v_159 (not ?v_145)) (?v_162 (not ?v_133)) (?v_165 (not ?v_227)) (?v_169 (not ?v_102)) (?v_245 (not P27)) (?v_187 (not ?v_15)) (?v_228 (not P19)) (?v_218 (not P15)) (?v_254 (not P7))) (let ((?v_257 (or P29 ?v_189)) (?v_230 (not P30)) (?v_200 (not P5)) (?v_241 (not P17)) (?v_231 (not ?v_179)) (?v_240 (not ?v_101)) (?v_251 (not ?v_10)) (?v_247 (not P12)) (?v_249 (not ?v_210)) (?v_242 (not P46)) (?v_259 (not ?v_176)) (?v_262 (not ?v_139)) (?v_244 (not P24)) (?v_252 (not P39)) (?v_253 (not ?v_185)) (?v_49 (<= (+ (* 13 x18) (* 25 x11)) 11)) (?v_20 (<= (- (- ?v_7 x48) (* 23 x36)) 3)) (?v_86 (< (+ (* 11 x32) ?v_19) 12))) (let ((?v_124 (not ?v_20)) (?v_52 (<= (- (- (* 4 x43) x43) (* 13 x15)) 2)) (?v_153 (< (+ (- 0 (* 5 x46)) (* 20 x18)) 4)) (?v_197 (not ?v_49))) (let ((?v_204 (not ?v_52)) (?v_199 (not ?v_86)) (?v_223 (not ?v_153)) (?v_157 (<= (- (- (* 2 x3) (* 25 x28)) (* 27 x25)) (- 29))) (?v_23 (<= (- (+ (* (- 20) x11) (* 25 x7)) (* 26 x1)) (- 28))) (?v_163 (= (+ (* (- 24) x33) (* 5 x13) (* 10 x45)) (- 22)))) (let ((?v_14 (not ?v_163)) (?v_1 (< (+ (* 3 x45) (* 20 x35) ?v_3) (- 4))) (?v_70 (< (+ (* (- 15) x39) (* 21 x41) (* 2 x34)) 5)) (?v_8 (< (- (+ (* (- 11) x44) (* 18 x44)) (* 16 x44)) (- 15))) (?v_116 (< (+ (- (* (- 7) x21) ?v_3) (* 24 x20)) (- 1)))) (let ((?v_232 (not ?v_116)) (?v_105 (<= (+ (* 19 x47) x11 (* 20 x32)) (- 21))) (?v_132 (<= (+ (- ?v_19 (* 5 x18)) (* 4 x42)) (- 18))) (?v_112 (<= (- (- (* (- 27) x18) (* 10 x11)) (* 26 x39)) (- 23)))) (let ((?v_6 (not ?v_112)) (?v_99 (< (+ (- (* (- 5) x18) 0) (* 12 x10)) 26)) (?v_82 (< (- (+ (* 27 x5) (* 7 x30)) (* 18 x25)) (- 13)))) (let ((?v_41 (not ?v_82)) (?v_21 (< (- (+ (* 16 x20) (* 27 x24)) (* 2 x14)) (- 12)))) (let ((?v_258 (not ?v_21)) (?v_235 (= (+ (- (* (- 10) x7) (* 10 x12)) (* 26 x15)) 8))) (let ((?v_186 (not ?v_235)) (?v_61 (< (- (+ (* 9 x23) (* 26 x25)) (* 3 x32)) (- 27)))) (let ((?v_81 (not ?v_61)) (?v_25 (< (- (- (* (- 21) x49) (* 21 x8)) (* 6 x43)) 29)) (?v_171 (<= (+ (- (* 4 x13) (* 11 x21)) (* 24 x33)) (- 15)))) (let ((?v_66 (not ?v_171)) (?v_65 (<= (- (- (* 15 x22) (* 12 x37)) (* 6 x3)) (- 9)))) (let ((?v_239 (not ?v_65)) (?v_114 (< (+ (* (- 23) x30) ?v_7 (* 13 x1)) (- 12)))) (let ((?v_58 (not ?v_114)) (?v_78 (< (- (- (* 14 x41) ?v_67) (* 12 x2)) (- 28)))) (let ((?v_50 (not ?v_78)) (?v_168 (not ?v_8)) (?v_46 (< (- (- (* (- 27) x45) (* 13 x27)) (* 27 x8)) (- 29)))) (let ((?v_152 (not ?v_46)) (?v_110 (<= (- (+ (* (- 6) x21) (* 22 x15)) (* 22 x34)) (- 7)))) (let ((?v_158 (not ?v_110)) (?v_149 (< (- (* (- 21) x38) (* 17 x19)) (- 21))) (?v_147 (< (+ (- (* 20 x1) (* 20 x42)) (* 12 x24)) (- 21)))) (let ((?v_59 (not ?v_147)) (?v_88 (<= (- (+ (* (- 15) x31) (* 5 x32)) (* 5 x49)) 29))) (let ((?v_144 (not ?v_88)) (?v_51 (= (- (- (* (- 17) x22) (* 27 x31)) (* 23 x24)) (- 29))) (?v_71 (not ?v_23)) (?v_198 (not ?v_25)) (?v_28 (<= (- (+ (* (- 17) x16) ?v_26) (* 7 x27)) 22))) (let ((?v_98 (not ?v_28)) (?v_34 (<= (+ (* (- 11) x35) (* 24 x14) (* 5 x17)) (- 4))) (?v_140 (= (- (- (* (- 21) x2) (* 12 x49)) x19) 19))) (let ((?v_236 (not ?v_140)) (?v_84 (<= (+ (- (* (- 4) x49) (* 27 x29)) (* 19 x20)) 17))) (let ((?v_57 (not ?v_84)) (?v_60 (distinct (+ (* (- 14) x38) (* 22 x6) (* 21 x44)) 8)) (?v_155 (< (- (+ (* 25 x22) (* 26 x10)) ?v_44) (- 3)))) (let ((?v_246 (not ?v_155)) (?v_56 (<= (- (- (* 13 x36) (* 25 x13)) (* 22 x31)) (- 15))) (?v_225 (not ?v_51)) (?v_77 (< (+ (- (* (- 17) x44) (* 17 x17)) (* 20 x34)) 12)) (?v_170 (not ?v_60)) (?v_106 (not ?v_34)) (?v_111 (distinct (- (* (- 1) x39) (* 16 x39)) 17))) (let ((?v_177 (not ?v_111)) (?v_123 (not ?v_70)) (?v_130 (not ?v_77)) (?v_100 (distinct (+ (* (- 1) x17) (* 17 x31) (* 6 x45)) 26))) (let ((?v_195 (not ?v_100)) (?v_234 (not ?v_105)) (?v_138 (not ?v_99)) (?v_208 (not ?v_132)) (?v_142 (not ?v_1)) (?v_173 (<= (+ (* (- 23) x40) (* 19 x30) (* 21 x46)) 1))) (let ((?v_181 (not ?v_173)) (?v_255 (not ?v_157)) (?v_260 (not ?v_56)) (?v_214 (<= (+ (* (- 23) x32) (* 11 x23) (* 19 x18)) (- 4)))) (let ((?v_220 (not ?v_214)) (?v_250 (or ?v_88 ?v_227))) (and (and (and (and (and (and (and (and (and (and (and (and (and (and (and (and (and (and (and (and (and (and (and (and (and (and (and (and (and (and (and (and (and (and (and (and (and (and (and (and (and (and (and (and (and (and (and (and (and (and (and (and (and (and (and (and (and (and (and (and (and (and (and (and (and (and (and (and (and (and (and (and (and (and (and (and (and (and (and (and (and (and (and (and (and (and (and (and (and (and (and (and (and (and (and (and (and (and (and (and (and (and (and (and (and (and (and (and (and (and (and (and (and (and (and (and (and (and (and (and (and (and (and (and (and (and (and (and (and (and (and (and (and (and (and (and (and (and (and (and (and (and (and (and (and (and (and (and (and (and (and (and (and (and (and (and (and (and (and (and (and (and (and (and (and (and (and (and (and (and (and (and (and (and (and (and (and (and (and (and (and (and (and (and (and (and (and (and (and (and (and (and (and (and (and (and (and (and (and (and (and (and (and (and (and (and (and (and (and (and (and (and (and (and (and (and (and (and (and (and (and (and (and (and (and (and (and (and (and (and (and (and (and (and (and (and (and (and (and (and (and (and (and (and (and (and (and (and (and (and (and (and (and (and (and (and (and (and (and (and (and (and (and (and (and (and (and (and (and (and (and (and (and (and (and (and (and (and (and (and (and (and (and (and (and (and (and (and (and (and (and (and (and (and (and (and (and (and (and (and (and (and (and (and (and (and (and (and (and (and (and (and (and (and (and (and (and (and (and (and (and (and (and (and (and (and (and (and (and (and (and (and (and (and (and (and (and (and (and (and (and (and (and (and (and (and (and (and (and (and (and (and (and (and (and (and (and (and (and (and (and (and (and (and (and (and (and (and (and (and (and (and (and (and (and (and (and (and (and (and (and (and (and (and (and (and (and (and (and (and (and (and (and (and (and (and (and (and (and (and (and (and (and (and (and (and (and (and (and (and (and (and (and (and (and (and (and (and (and (and (and (and (and (and (and (and (and (and (and (and (and (and (and (and (and (and (and (and (and (and (and (and (and (and (and (and (and (and (and (and (and (and (and (and (and (and (and (and (and (and (and (and (and (and (and (and (and (and (and (and (and (and (and (and (and (and (and (and (and (and (and (and (and (and (and (and (and (and (and (and (and (and (and (and (and (and (and (and (and (and (and (and (and (and (and (and (and (and (and (and (and (and (and (and (and (and (and (and (and (and (and (and (and (and (and (and (and (and (and (and (and (and (and (and (and (and (and (and (and (and (and (and (and (and (and (and (and (and (and (and (and (and (and (and (and (and (and (and (and (and (and (and (and (and (and (and (and (and (and (and (and (and (and (and (and (and (and (and (and (and (and (and (and (and (and (and (and (and (and (and (and (and (and (and (and (and (and (and (and (or (or ?v_64 ?v_157) ?v_222) (or (or P47 ?v_29) ?v_0)) (or (or P39 ?v_23) ?v_63)) (or (or ?v_4 ?v_2) ?v_183)) (or (or ?v_14 ?v_1) ?v_70)) (or (or ?v_62 ?v_1) ?v_8)) (or (or P22 ?v_2) ?v_232)) (or (or ?v_105 ?v_47) ?v_22)) (or (or ?v_132 P14) ?v_11)) (or (or ?v_150 ?v_10) ?v_6)) (or (or ?v_213 ?v_109) P33)) (or (or ?v_35 P17) ?v_99)) (or (or ?v_210 P38) ?v_41)) (or (or ?v_258 ?v_49) ?v_186)) (or (or ?v_81 P7) ?v_25)) (or (or ?v_13 ?v_18) ?v_115)) (or (or ?v_139 ?v_75) ?v_20)) (or (or ?v_24 P26) ?v_66)) (or (or ?v_15 ?v_239) ?v_6)) (or (or ?v_133 P43) P31)) (or (or ?v_42 ?v_58) ?v_8)) (or (or ?v_50 ?v_141) ?v_168)) (or (or ?v_9 ?v_152) ?v_127)) (or (or ?v_95 P14) P19)) (or (or ?v_10 ?v_11) ?v_209)) (or (or ?v_164 ?v_158) (not ?v_149))) (or (or ?v_80 ?v_136) ?v_30)) (or (or ?v_72 ?v_188) ?v_14)) (or (or P15 ?v_90) ?v_15)) (or (or ?v_37 P8) ?v_146)) (or (or P39 P14) ?v_17)) (or (or ?v_229 ?v_261) ?v_18)) (or (or ?v_59 ?v_86) ?v_124)) (or (or P27 ?v_161) P38)) (or (or ?v_144 ?v_43) ?v_238)) (or (or ?v_119 ?v_21) ?v_22)) (or (or ?v_18 ?v_117) P30)) (or (or ?v_51 ?v_53) ?v_71)) (or (or ?v_24 ?v_198) ?v_28)) (or (or ?v_45 ?v_40) ?v_98)) (or (or ?v_135 ?v_29) ?v_34)) (or (or ?v_83 ?v_30) ?v_31)) (or (or ?v_32 ?v_236) P1)) (or (or P19 ?v_73) P31)) (or (or ?v_57 ?v_34) ?v_107)) (or (or ?v_36 ?v_97) P15)) (or (or ?v_38 ?v_39) P4)) (or (or ?v_0 ?v_40) ?v_41)) (or (or ?v_60 ?v_42) ?v_43)) (or (or ?v_246 ?v_45) ?v_46)) (or (or ?v_47 ?v_79) ?v_49)) (or (or ?v_52 ?v_49) ?v_15)) (or (or P3 P14) ?v_50)) (or (or ?v_28 ?v_56) ?v_89)) (or (or P42 ?v_225) ?v_21)) (or (or ?v_14 ?v_36) ?v_13)) (or (or P14 ?v_153) ?v_52)) (or (or P35 ?v_39) ?v_28)) (or (or ?v_68 ?v_174) ?v_77)) (or (or ?v_53 P30) P48)) (or (or ?v_54 ?v_192) ?v_56)) (or (or ?v_57 ?v_58) ?v_49)) (or (or ?v_59 ?v_170) ?v_61)) (or (or P5 ?v_28) ?v_197)) (or (or ?v_69 P9) ?v_15)) (or (or ?v_106 P21) ?v_126)) (or (or ?v_64 ?v_65) ?v_66)) (or (or ?v_1 ?v_185) P34)) (or (or ?v_96 ?v_177) ?v_20)) (or (or ?v_104 ?v_143) ?v_204)) (or (or ?v_68 ?v_35) ?v_69)) (or (or P6 ?v_46) ?v_74)) (or (or ?v_123 P28) ?v_93)) (or (or ?v_190 ?v_50) ?v_54)) (or (or ?v_71 ?v_129) ?v_9)) (or (or ?v_66 ?v_72) P1)) (or (or ?v_87 ?v_73) ?v_118)) (or (or ?v_92 ?v_22) ?v_74)) (or (or ?v_75 ?v_76) ?v_172)) (or (or ?v_58 ?v_69) ?v_43)) (or (or ?v_8 ?v_101) ?v_130)) (or (or ?v_24 P47) ?v_156)) (or (or ?v_78 ?v_91) ?v_221)) (or (or P40 ?v_203) ?v_80)) (or (or ?v_81 ?v_64) ?v_82)) (or (or ?v_83 ?v_84) P42)) (or (or ?v_85 P34) ?v_47)) (or (or P45 ?v_8) ?v_34)) (or (or ?v_211 ?v_199) ?v_87)) (or (or ?v_102 ?v_38) P10)) (or (or ?v_88 ?v_160) ?v_65)) (or (or ?v_108 ?v_180) ?v_90)) (or (or ?v_91 ?v_91) ?v_92)) (or (or ?v_11 ?v_93) ?v_94)) (or (or ?v_95 ?v_96) ?v_166)) (or (or ?v_100 ?v_97) ?v_70)) (or (or ?v_82 ?v_84) ?v_98)) (or (or P46 ?v_99) ?v_113)) (or (or P30 ?v_195) ?v_84)) (or (or ?v_11 ?v_90) P44)) (or (or ?v_99 ?v_216) ?v_101)) (or (or ?v_102 ?v_179) P29)) (or (or ?v_103 ?v_104) P44)) (or (or ?v_234 ?v_85) P35)) (or (or P18 ?v_106) ?v_107)) (or (or ?v_50 ?v_25) ?v_193)) (or (or ?v_196 ?v_138) ?v_110)) (or (or ?v_97 ?v_111) P25)) (or (or ?v_226 ?v_100) ?v_182)) (or (or P0 ?v_10) P38)) (or (or ?v_243 ?v_112) ?v_113)) (or (or ?v_37 ?v_72) ?v_128)) (or (or ?v_91 ?v_114) P3)) (or (or P25 ?v_201) P0)) (or (or ?v_109 ?v_98) P47)) (or (or P26 P29) ?v_13)) (or (or ?v_81 P28) ?v_79)) (or (or ?v_184 ?v_116) ?v_110)) (or (or P42 ?v_103) ?v_125)) (or (or ?v_0 ?v_189) ?v_79)) (or (or ?v_202 ?v_194) ?v_51)) (or (or ?v_117 ?v_118) ?v_43)) (or (or ?v_119 P43) ?v_75)) (or (or (not P41) ?v_120) P48)) (or (or ?v_121 ?v_25) ?v_122)) (or (or ?v_4 P46) ?v_34)) (or (or ?v_123 ?v_99) ?v_124)) (or (or ?v_86 ?v_137) ?v_219)) (or (or ?v_111 ?v_125) ?v_167)) (or (or ?v_65 ?v_31) ?v_126)) (or (or ?v_127 ?v_8) ?v_72)) (or (or ?v_128 ?v_224) ?v_129)) (or (or ?v_125 ?v_130) ?v_30)) (or (or P41 ?v_112) ?v_233)) (or (or ?v_131 ?v_90) ?v_115)) (or (or ?v_49 ?v_208) ?v_83)) (or (or P40 ?v_112) P17)) (or (or ?v_133 ?v_134) ?v_39)) (or (or ?v_93 ?v_135) P47)) (or (or P10 P26) ?v_46)) (or (or ?v_96 ?v_37) P38)) (or (or ?v_136 ?v_137) ?v_138)) (or (or ?v_2 ?v_87) ?v_77)) (or (or ?v_139 ?v_237) ?v_140)) (or (or ?v_141 ?v_56) ?v_14)) (or (or ?v_142 ?v_63) ?v_175)) (or (or ?v_142 ?v_84) ?v_143)) (or (or P4 ?v_1) P14)) (or (or ?v_116 ?v_43) P14)) (or (or ?v_159 ?v_39) ?v_102)) (or (or ?v_114 ?v_117) ?v_123)) (or (or ?v_144 ?v_145) P16)) (or (or ?v_141 ?v_146) ?v_147)) (or (or ?v_162 P34) P10)) (or (or ?v_148 ?v_69) ?v_181)) (or (or P10 ?v_87) ?v_149)) (or (or ?v_73 P23) ?v_150)) (or (or ?v_165 ?v_93) ?v_80)) (or (or ?v_152 ?v_41) ?v_4)) (or (or P13 ?v_153) ?v_121)) (or (or ?v_77 ?v_154) P39)) (or (or ?v_155 ?v_127) ?v_57)) (or (or ?v_156 ?v_147) ?v_255)) (or (or ?v_158 ?v_169) ?v_159)) (or (or P10 P2) ?v_71)) (or (or ?v_129 ?v_1) ?v_75)) (or (or ?v_62 P35) ?v_111)) (or (or ?v_69 ?v_97) ?v_23)) (or (or ?v_160 P13) P39)) (or (or P9 ?v_161) ?v_81)) (or (or ?v_120 ?v_70) ?v_159)) (or (or ?v_133 ?v_162) ?v_41)) (or (or ?v_163 ?v_223) ?v_164)) (or (or ?v_81 ?v_165) ?v_154)) (or (or P3 ?v_166) ?v_167)) (or (or ?v_135 ?v_166) ?v_107)) (or (or ?v_128 ?v_176) ?v_62)) (or (or ?v_69 ?v_164) ?v_168)) (or (or P14 ?v_169) ?v_128)) (or (or ?v_152 ?v_170) ?v_78)) (or (or ?v_108 ?v_245) ?v_171)) (or (or ?v_172 ?v_173) P8)) (or (or ?v_17 ?v_174) ?v_118)) (or (or ?v_9 ?v_41) ?v_103)) (or (or ?v_162 ?v_175) ?v_122)) (or (or ?v_176 ?v_14) ?v_77)) (or (or ?v_177 ?v_175) ?v_178)) (or (or ?v_45 ?v_116) ?v_142)) (or (or ?v_187 ?v_127) P44)) (or (or ?v_66 ?v_107) ?v_38)) (or (or ?v_228 P38) ?v_166)) (or (or P41 P30) ?v_2)) (or (or ?v_179 ?v_81) P15)) (or (or ?v_123 ?v_143) ?v_180)) (or (or ?v_105 ?v_49) ?v_137)) (or (or ?v_23 P33) P40)) (or (or ?v_120 P48) ?v_121)) (or (or ?v_181 ?v_89) P13)) (or (or ?v_182 ?v_50) ?v_183)) (or (or ?v_91 ?v_70) ?v_116)) (or (or ?v_184 ?v_185) ?v_88)) (or (or P48 ?v_218) ?v_71)) (or (or ?v_254 ?v_186) ?v_98)) (or (or ?v_180 ?v_143) ?v_66)) (or (or ?v_174 ?v_187) ?v_188)) (or ?v_257 ?v_0)) (or (or ?v_39 ?v_140) ?v_96)) (or (or ?v_260 P45) ?v_190)) (or (or ?v_34 P43) ?v_10)) (or (or ?v_104 ?v_99) ?v_230)) (or (or ?v_154 ?v_112) ?v_129)) (or (or ?v_23 ?v_170) ?v_53)) (or (or ?v_125 ?v_75) ?v_17)) (or (or ?v_187 ?v_191) ?v_192)) (or (or ?v_193 ?v_176) ?v_20)) (or (or ?v_193 ?v_194) ?v_85)) (or (or ?v_158 ?v_189) ?v_122)) (or (or ?v_130 P28) ?v_154)) (or (or ?v_24 P15) ?v_214)) (or (or ?v_195 ?v_172) ?v_30)) (or (or ?v_65 ?v_196) ?v_81)) (or (or ?v_81 ?v_195) ?v_15)) (or (or ?v_65 ?v_197) ?v_198)) (or (or ?v_199 ?v_174) ?v_154)) (or (or ?v_155 P27) ?v_182)) (or (or ?v_116 ?v_14) P29)) (or (or ?v_106 ?v_173) ?v_200)) (or (or ?v_241 ?v_117) ?v_101)) (or (or ?v_187 ?v_146) P6)) (or (or ?v_91 ?v_0) ?v_198)) (or (or ?v_212 ?v_63) P49)) (or (or ?v_195 ?v_70) ?v_30)) (or (or ?v_195 ?v_200) ?v_201)) (or (or ?v_72 ?v_231) ?v_120)) (or (or ?v_116 ?v_60) ?v_31)) (or (or ?v_46 ?v_124) ?v_240)) (or (or ?v_85 ?v_144) ?v_163)) (or (or ?v_122 ?v_202) ?v_114)) (or (or ?v_20 ?v_95) ?v_203)) (or (or ?v_251 ?v_204) ?v_79)) (or (or P25 ?v_247) ?v_113)) (or (or ?v_192 ?v_144) ?v_137)) (or (or ?v_46 P16) ?v_58)) (or (or P12 ?v_191) ?v_194)) (or (or ?v_47 ?v_102) P40)) (or (or ?v_147 ?v_205) ?v_185)) (or (or P30 ?v_60) ?v_206)) (or (or ?v_207 ?v_181) ?v_208)) (or (or ?v_209 ?v_65) ?v_249)) (or (or ?v_190 P16) ?v_37)) (or (or ?v_211 (not ?v_212)) ?v_161)) (or (or ?v_96 ?v_127) P26)) (or (or ?v_45 P3) ?v_116)) (or (or P47 ?v_146) ?v_211)) (or (or ?v_15 ?v_242) ?v_259)) (or (or ?v_191 ?v_21) ?v_126)) (or (or ?v_74 ?v_185) ?v_119)) (or (or P33 ?v_9) P48)) (or (or ?v_213 ?v_30) ?v_21)) (or (or ?v_220 ?v_169) ?v_95)) (or (or ?v_215 ?v_47) ?v_216)) (or (or P1 ?v_217) P35)) (or (or P41 ?v_47) ?v_211)) (or (or ?v_65 ?v_63) ?v_218)) (or (or ?v_41 ?v_213) ?v_138)) (or (or P39 ?v_140) ?v_120)) (or (or ?v_166 ?v_194) ?v_91)) (or (or ?v_143 ?v_39) ?v_211)) (or (or ?v_219 ?v_42) ?v_37)) (or (or ?v_91 ?v_220) ?v_24)) (or (or ?v_216 ?v_75) ?v_106)) (or (or ?v_86 ?v_109) P24)) (or (or ?v_152 ?v_139) ?v_83)) (or (or ?v_9 ?v_221) ?v_120)) (or (or ?v_0 ?v_103) ?v_143)) (or (or ?v_20 ?v_118) ?v_129)) (or (or ?v_10 ?v_222) ?v_196)) (or (or ?v_133 ?v_118) ?v_141)) (or (or ?v_81 ?v_199) ?v_93)) (or (or ?v_191 ?v_138) ?v_106)) (or (or ?v_58 ?v_8) P5)) (or (or ?v_215 ?v_29) ?v_170)) (or (or ?v_218 ?v_161) ?v_41)) (or (or ?v_223 ?v_22) ?v_92)) (or (or ?v_192 ?v_54) ?v_135)) (or (or ?v_217 ?v_14) ?v_178)) (or (or ?v_224 ?v_225) ?v_99)) (or (or ?v_79 ?v_185) P29)) (or (or ?v_126 ?v_99) ?v_152)) (or (or ?v_194 ?v_116) P45)) (or (or ?v_90 ?v_205) ?v_210)) (or (or P14 ?v_172) ?v_106)) (or (or ?v_73 ?v_131) ?v_226)) (or ?v_250 ?v_119)) (or (or ?v_169 ?v_133) ?v_177)) (or (or ?v_46 ?v_64) ?v_219)) (or (or ?v_228 ?v_68) ?v_94)) (or (or ?v_127 ?v_39) ?v_223)) (or (or ?v_0 ?v_91) ?v_78)) (or (or ?v_86 ?v_162) ?v_2)) (or (or ?v_139 ?v_155) ?v_229)) (or (or ?v_66 ?v_230) ?v_97)) (or (or P23 ?v_195) ?v_2)) (or (or ?v_231 ?v_72) ?v_64)) (or (or ?v_218 ?v_178) ?v_215)) (or (or ?v_0 ?v_114) ?v_83)) (or (or ?v_1 ?v_23) ?v_203)) (or (or ?v_209 ?v_232) ?v_70)) (or (or ?v_121 ?v_173) P40)) (or (or ?v_134 ?v_10) P42)) (or (or ?v_68 P45) ?v_29)) (or (or ?v_166 ?v_6) ?v_17)) (or (or ?v_49 P47) ?v_41)) (or (or ?v_200 ?v_129) ?v_229)) (or (or ?v_60 ?v_38) ?v_75)) (or (or P18 P28) ?v_32)) (or (or ?v_233 P23) ?v_37)) (or (or P12 P12) P49)) (or (or P43 ?v_142) P32)) (or (or ?v_43 ?v_98) ?v_61)) (or (or ?v_173 ?v_130) ?v_92)) (or (or ?v_31 ?v_0) ?v_234)) (or (or ?v_166 ?v_118) ?v_53)) (or (or ?v_224 ?v_23) ?v_100)) (or (or ?v_63 ?v_114) ?v_39)) (or (or ?v_146 ?v_235) ?v_223)) (or (or ?v_95 ?v_203) ?v_201)) (or (or ?v_236 ?v_166) ?v_143)) (or (or ?v_98 ?v_23) ?v_29)) (or (or ?v_79 P17) P22)) (or (or P42 P30) P49)) (or (or ?v_45 ?v_108) ?v_110)) (or (or ?v_111 ?v_97) ?v_237)) (or (or ?v_4 ?v_120) ?v_2)) (or (or P31 ?v_167) ?v_185)) (or (or ?v_15 ?v_262) ?v_69)) (or (or ?v_61 ?v_18) ?v_157)) (or (or P38 ?v_76) ?v_244)) (or (or ?v_128 ?v_6) P5)) (or (or ?v_38 ?v_178) ?v_135)) (or (or P3 ?v_238) ?v_64)) (or (or ?v_148 ?v_63) ?v_171)) (or (or ?v_168 ?v_252) ?v_106)) (or (or ?v_21 ?v_185) ?v_237)) (or (or ?v_191 ?v_36) ?v_168)) (or (or ?v_66 ?v_143) ?v_239)) (or (or ?v_148 ?v_179) ?v_197)) (or (or ?v_143 ?v_240) ?v_241)) (or (or ?v_223 ?v_107) P39)) (or (or ?v_221 P43) ?v_21)) (or (or P16 ?v_46) P23)) (or (or ?v_242 ?v_150) ?v_95)) (or (or ?v_243 ?v_177) ?v_71)) (or (or ?v_162 ?v_11) ?v_215)) (or (or ?v_20 ?v_21) ?v_79)) (or (or P27 ?v_244) ?v_60)) (or (or ?v_56 ?v_162) ?v_222)) (or (or ?v_79 ?v_72) ?v_245)) (or (or ?v_83 P7) ?v_9)) (or (or ?v_201 P4) ?v_183)) (or (or ?v_123 ?v_213) P15)) (or (or ?v_220 ?v_51) ?v_157)) (or (or ?v_116 ?v_25) ?v_58)) (or (or ?v_213 ?v_136) ?v_161)) (or (or P43 ?v_239) ?v_184)) (or (or ?v_98 ?v_124) ?v_208)) (or (or P42 ?v_167) ?v_140)) (or (or ?v_98 P46) ?v_68)) (or (or ?v_86 ?v_56) ?v_133)) (or (or ?v_23 ?v_98) P44)) (or (or ?v_0 ?v_155) ?v_177)) (or (or ?v_200 ?v_172) ?v_228)) (or (or ?v_231 ?v_184) ?v_246)) (or (or ?v_139 ?v_37) ?v_145)) (or (or ?v_6 ?v_62) ?v_71)) (or (or P22 ?v_28) ?v_31)) (or (or ?v_109 ?v_209) ?v_9)) (or (or ?v_215 ?v_167) ?v_221)) (or (or ?v_228 ?v_247) P27)) (or (or ?v_191 ?v_248) ?v_249)) (or (or ?v_112 P8) P21)) (or (or ?v_0 ?v_106) ?v_206)) (or (or ?v_39 ?v_63) ?v_180)) (or (or ?v_6 ?v_116) ?v_38)) (or (or ?v_56 P33) ?v_1)) (or (or ?v_186 P26) ?v_97)) (or (or ?v_232 ?v_88) ?v_158)) (or (or ?v_200 P47) ?v_191)) (or (or ?v_131 ?v_70) ?v_83)) (or (or ?v_89 ?v_29) ?v_141)) (or (or ?v_246 ?v_28) ?v_38)) (or (or ?v_83 ?v_153) ?v_170)) (or (or P36 ?v_106) ?v_139)) (or (or P6 ?v_127) P45)) (or (or ?v_176 ?v_174) ?v_73)) (or (or ?v_240 ?v_110) ?v_129)) (or (or ?v_78 ?v_120) ?v_134)) (or ?v_250 ?v_230)) (or (or ?v_90 ?v_203) P28)) (or (or ?v_185 P29) ?v_150)) (or (or ?v_35 P37) ?v_224)) (or (or ?v_119 ?v_134) ?v_142)) (or (or ?v_146 ?v_200) ?v_239)) (or (or ?v_251 ?v_41) ?v_127)) (or (or ?v_98 ?v_182) ?v_152)) (or (or ?v_231 P15) P44)) (or (or P5 P40) P37)) (or (or ?v_242 ?v_116) P17)) (or (or ?v_182 ?v_179) ?v_39)) (or (or ?v_160 ?v_244) ?v_15)) (or (or ?v_164 ?v_50) ?v_141)) (or (or ?v_228 ?v_165) P28)) (or (or ?v_181 P16) ?v_15)) (or (or ?v_75 ?v_253) ?v_95)) (or (or ?v_234 ?v_38) ?v_174)) (or (or ?v_11 P39) ?v_177)) (or (or ?v_133 ?v_189) ?v_21)) (or (or ?v_243 ?v_185) ?v_252)) (or (or ?v_46 ?v_244) ?v_231)) (or (or ?v_28 ?v_114) ?v_129)) (or (or ?v_114 ?v_94) ?v_158)) (or (or ?v_4 P47) P17)) (or (or P4 ?v_70) ?v_187)) (or (or ?v_24 ?v_144) ?v_110)) (or (or ?v_127 ?v_47) ?v_9)) (or (or ?v_253 ?v_161) ?v_224)) (or (or ?v_58 ?v_188) ?v_73)) (or (or ?v_81 ?v_251) ?v_104)) (or (or ?v_157 ?v_14) ?v_42)) (or (or P33 P23) ?v_10)) (or (or ?v_8 ?v_137) ?v_175)) (or (or ?v_249 ?v_109) P15)) (or (or ?v_221 ?v_32) ?v_233)) (or (or P45 ?v_228) ?v_59)) (or (or P41 ?v_219) ?v_186)) (or (or ?v_68 P6) P9)) (or (or ?v_13 ?v_186) ?v_96)) (or (or ?v_20 ?v_13) ?v_76)) (or (or ?v_235 P22) ?v_142)) (or (or ?v_229 ?v_230) ?v_62)) (or (or ?v_192 P21) ?v_254)) (or (or ?v_124 ?v_136) ?v_128)) (or (or ?v_248 ?v_9) ?v_221)) (or (or ?v_56 P29) P26)) (or (or P28 ?v_117) ?v_132)) (or (or ?v_162 ?v_255) P35)) (or (or P49 ?v_91) ?v_155)) (or (or ?v_94 ?v_79) ?v_232)) (or (or ?v_201 ?v_231) ?v_236)) (or (or ?v_166 ?v_231) ?v_171)) (or (or ?v_36 ?v_207) ?v_8)) (or (or ?v_136 P25) ?v_177)) (or (or ?v_25 P34) ?v_43)) (or (or ?v_91 ?v_14) P42)) (or (or ?v_76 ?v_213) ?v_28)) (or (or ?v_252 ?v_91) ?v_140)) (or (or P13 ?v_32) ?v_139)) (or (or ?v_133 P18) ?v_53)) (or (or ?v_42 P40) ?v_190)) (or (or ?v_244 ?v_155) ?v_79)) (or (or P31 P43) ?v_224)) (or (or ?v_152 P19) P40)) (or (or ?v_124 ?v_197) ?v_8)) (or (or P47 P48) ?v_161)) (or (or P40 ?v_185) ?v_76)) (or (or ?v_249 ?v_79) ?v_35)) (or (or ?v_127 ?v_174) ?v_130)) (or (or P22 ?v_108) ?v_57)) (or (or ?v_24 ?v_49) ?v_63)) (or (or P0 ?v_220) P18)) (or (or ?v_131 P23) ?v_256)) (or (or ?v_122 P24) ?v_221)) (or (or ?v_194 ?v_6) ?v_256)) (or (or ?v_120 ?v_59) ?v_47)) (or (or ?v_124 ?v_89) P14)) (or (or ?v_34 ?v_136) ?v_30)) (or (or ?v_29 ?v_253) ?v_165)) (or (or ?v_85 ?v_212) P42)) (or (or ?v_120 ?v_76) ?v_115)) (or (or P33 ?v_4) ?v_28)) (or ?v_257 ?v_255)) (or (or ?v_139 ?v_143) ?v_224)) (or (or ?v_90 ?v_11) ?v_63)) (or (or ?v_62 P27) ?v_171)) (or (or P26 ?v_49) P15)) (or (or ?v_244 ?v_79) ?v_8)) (or (or ?v_181 P30) ?v_152)) (or (or ?v_40 ?v_86) ?v_43)) (or (or ?v_240 ?v_31) ?v_181)) (or (or P18 P22) ?v_254)) (or (or ?v_212 P33) ?v_182)) (or (or ?v_255 P17) ?v_215)) (or (or ?v_258 ?v_209) ?v_96)) (or (or P46 ?v_168) ?v_186)) (or (or ?v_247 ?v_77) ?v_182)) (or (or ?v_243 ?v_109) ?v_59)) (or (or ?v_234 ?v_124) ?v_62)) (or (or ?v_242 ?v_254) ?v_137)) (or (or P17 P12) ?v_187)) (or (or ?v_70 ?v_165) ?v_222)) (or (or ?v_117 ?v_145) ?v_118)) (or (or ?v_237 ?v_58) ?v_126)) (or (or ?v_251 ?v_215) ?v_93)) (or (or ?v_76 ?v_154) ?v_223)) (or (or P25 ?v_246) P24)) (or (or ?v_87 ?v_8) ?v_215)) (or (or ?v_84 ?v_107) ?v_251)) (or (or ?v_239 P18) P6)) (or (or ?v_109 ?v_232) ?v_235)) (or (or ?v_71 ?v_78) ?v_227)) (or (or ?v_243 P42) ?v_146)) (or (or ?v_97 ?v_255) ?v_51)) (or (or ?v_91 P4) ?v_221)) (or (or ?v_140 ?v_89) ?v_213)) (or (or ?v_102 ?v_0) ?v_100)) (or (or ?v_85 ?v_119) ?v_168)) (or (or ?v_116 ?v_234) ?v_124)) (or (or ?v_25 ?v_65) ?v_114)) (or (or ?v_50 ?v_253) ?v_153)) (or (or ?v_1 ?v_227) ?v_38)) (or (or P14 ?v_127) ?v_200)) (or (or ?v_200 ?v_217) P6)) (or (or ?v_106 ?v_2) ?v_65)) (or (or ?v_218 ?v_232) P29)) (or (or ?v_134 ?v_259) ?v_160)) (or (or ?v_8 P39) ?v_191)) (or (or ?v_207 ?v_135) ?v_221)) (or (or ?v_120 ?v_179) ?v_166)) (or (or P10 ?v_200) ?v_152)) (or (or P23 ?v_103) ?v_70)) (or (or ?v_113 P7) ?v_259)) (or (or ?v_113 ?v_161) ?v_156)) (or (or P18 ?v_96) ?v_152)) (or (or P5 ?v_248) ?v_8)) (or (or ?v_49 ?v_38) ?v_130)) (or (or ?v_62 ?v_142) ?v_31)) (or (or ?v_88 ?v_206) ?v_135)) (or (or ?v_114 ?v_41) ?v_147)) (or (or ?v_179 ?v_34) P30)) (or (or P48 ?v_118) P17)) (or (or P10 ?v_130) ?v_60)) (or (or P44 ?v_169) P8)) (or (or ?v_119 P17) P41)) (or (or ?v_260 ?v_81) ?v_173)) (or (or ?v_127 ?v_58) ?v_223)) (or (or ?v_63 ?v_17) ?v_124)) (or (or ?v_118 P25) ?v_31)) (or (or ?v_173 ?v_62) ?v_88)) (or (or ?v_69 P14) ?v_261)) (or (or P5 ?v_195) ?v_24)) (or (or ?v_214 ?v_170) ?v_45)) (or (or ?v_90 ?v_45) ?v_175)) (or (or ?v_23 ?v_192) ?v_25)) (or (or P3 P18) ?v_147)) (or (or ?v_186 P22) P24)) (or (or ?v_244 ?v_68) ?v_206)) (or (or ?v_206 P8) ?v_157)) (or (or ?v_31 P17) ?v_72)) (or (or ?v_95 ?v_212) ?v_165)) (or (or ?v_58 ?v_81) ?v_41)) (or (or ?v_181 ?v_126) P44)) (or (or ?v_69 ?v_225) ?v_49)) (or (or ?v_25 ?v_228) ?v_34)) (or (or ?v_188 P23) ?v_37)) (or (or ?v_253 ?v_215) ?v_122)) (or (or ?v_180 ?v_246) ?v_160)) (or (or ?v_133 ?v_222) ?v_196)) (or (or P22 P19) P46)) (or (or ?v_159 ?v_107) ?v_152)) (or (or ?v_63 ?v_59) ?v_133)) (or (or ?v_227 ?v_70) P5)) (or (or ?v_51 ?v_102) ?v_23)) (or (or P5 ?v_166) ?v_228)) (or (or P7 ?v_59) ?v_180)) (or (or ?v_8 ?v_86) ?v_60)) (or (or ?v_192 ?v_197) ?v_241)) (or (or ?v_35 ?v_172) P11)) (or (or ?v_127 ?v_184) ?v_202)) (or (or ?v_58 ?v_168) ?v_102)) (or (or ?v_138 ?v_174) ?v_203)) (or (or ?v_117 ?v_40) ?v_198)) (or (or ?v_199 ?v_153) ?v_149)) (or (or ?v_150 ?v_163) ?v_149)) (or (or ?v_187 ?v_252) ?v_208)) (or (or ?v_52 ?v_1) ?v_244)) (or (or ?v_86 P36) ?v_260)) (or (or ?v_171 ?v_172) ?v_160)) (or (or ?v_194 ?v_103) ?v_30)) (or (or ?v_156 P25) ?v_179)) (or (or ?v_127 P33) ?v_157)) (or (or ?v_256 P44) ?v_65)) (or (or P23 ?v_60) ?v_148)) (or (or ?v_203 ?v_9) ?v_97)) (or (or ?v_30 ?v_17) P26)) (or (or ?v_192 P25) ?v_261)) (or (or ?v_32 ?v_183) ?v_236)) (or (or ?v_140 ?v_102) ?v_253)) (or (or ?v_262 ?v_66) ?v_43)) (or (or ?v_118 ?v_145) P7)) (or (or ?v_224 ?v_157) ?v_1)))))))))))))))))))))))))))))))))))))))))
(check-sat)
(exit)
